c ****************************************************************
c **     This is a Sat-2003 Competition *SHUFFLED* instance     **
c ****************************************************************
c N.B. This header has been added to the file after the competition
c Please do contact L. Simon for more informations (simon@lri.fr)
c 
c Bench submitted by: Richard Ostrowski (CRIL, Universite d'Artois, Lens, FR)
c              email: richard.ostrowski@cril.univ-artois.fr
c 
c The original name of this formula was: 
c    handmade/ostrowski/genurq/genurq3Sat.cnf
c Category : HandMade
c The name used during the competition was: 
c     handmade/set107/sat03-1509.cnf
c The random seed used to shuffle this instance  was: 1070877115
c 
c CPU time of solvers on this bench during the first stage 
c  (including Hors-Concours solvers):
c   +------------+------+--------+
c   | Solver     | Time | Answer |
c   +------------+------+--------+
c   | berkmin561 | 0.00 |   SAT  |
c   | bmsat      | 0.00 |   SAT  |
c   | compsat    | 0.00 |   SAT  |
c   | funex      | 0.00 |   SAT  |
c   | kcnfs      | 0.00 |   SAT  |
c   | limmat     | 0.00 |   SAT  |
c   | oepir      | 0.00 |   SAT  |
c   | qingting   | 0.00 |   SAT  |
c   | satnik     | 0.00 |   SAT  |
c   | sato       | 0.00 |   SAT  |
c   | saturn     | 0.00 |   SAT  |
c   | satzoo1    | 0.00 |   SAT  |
c   | unitwalk   | 0.00 |   SAT  |
c   | xqingting  | 0.00 |   SAT  |
c   | zchaff     | 0.00 |   SAT  |
c   | amvo       | 0.01 |   SAT  |
c   | jerusat1a  | 0.01 |   SAT  |
c   | jerusat1b  | 0.01 |   SAT  |
c   | jerusat1c  | 0.01 |   SAT  |
c   | lsat       | 0.01 |   SAT  |
c   | marchsp    | 0.01 |   SAT  |
c   | satzoo0    | 0.01 |   SAT  |
c   | satzilla   | 0.02 |   SAT  |
c   | tts        | 0.02 |   SAT  |
c   | forklift   | 0.03 |   SAT  |
c   | siege      | 0.08 |   SAT  |
c   | marchtt    | 0.10 |   SAT  |
c   | farseer    | 0.18 |   SAT  |
c   | marchxq    | 0.26 |   SAT  |
c   | opensat    | 0.39 |   SAT  |
c   | berkmin62  | 0.58 |   SAT  |
c   | jquest2    | 0.98 |   SAT  |
c   | satzilla2  | 4.61 |   SAT  |
c   +------------+------+--------+
c
c Old header begins here:
c The random seed used to shuffle this instance was seed=1070877115
p cnf 34 150
-16 -1 27 23 -30 0
-29 13 12 0
13 9 26 0
16 -30 1 23 27 0
-21 -16 -8 25 0
-20 -4 24 7 0
27 -23 16 -1 -30 0
-23 -27 30 1 -16 0
-4 7 -24 20 0
-9 24 -18 32 0
-16 -23 30 -1 27 0
-19 -3 -7 30 -15 0
-26 -14 -10 21 34 0
7 -24 4 -20 0
-10 -26 -34 -21 -14 0
20 -23 -19 0
-30 -7 19 15 3 0
-7 30 3 -19 15 0
28 -31 -6 3 22 0
-33 -22 -5 29 0
34 21 10 26 -14 0
31 -28 6 -3 22 0
14 -26 21 -10 -34 0
9 -13 -26 0
16 -23 -30 -27 1 0
-7 4 20 -24 0
-22 -28 6 -3 -31 0
30 -3 7 -15 19 0
-6 31 28 3 -22 0
32 -31 -12 2 0
34 10 14 21 -26 0
-13 26 -9 0
-28 -22 3 -6 -31 0
8 -25 -16 -21 0
-28 5 -1 -10 -25 0
24 9 -32 -18 0
-30 -3 19 7 15 0
-10 26 -34 21 -14 0
25 28 -5 1 -10 0
13 -26 -9 0
10 28 -5 -1 25 0
14 -34 21 26 10 0
-5 -33 22 -29 0
23 1 30 16 -27 0
10 5 1 28 25 0
17 -4 14 0
28 10 -5 1 -25 0
18 -24 9 -32 0
7 30 3 -15 -19 0
-28 31 -3 -6 -22 0
-28 5 10 -25 1 0
10 -14 -34 26 -21 0
16 -25 -21 -8 0
1 -23 -16 27 -30 0
3 -22 31 6 -28 0
3 30 -15 19 -7 0
5 -29 -22 -33 0
23 -20 -19 0
-27 17 -11 0
-27 -30 -23 -1 -16 0
-25 -8 -16 21 0
-6 22 28 31 -3 0
28 -3 6 -22 31 0
8 11 33 0
25 -10 28 -1 5 0
19 -3 -30 -7 -15 0
-30 -27 -16 23 1 0
-24 -20 -7 -4 0
-11 -33 8 0
12 31 -2 -32 0
-6 -2 0
27 17 11 0
-20 4 24 -7 0
7 3 19 30 15 0
-5 -28 25 1 10 0
-28 -31 6 3 22 0
33 5 29 -22 0
3 15 -30 -19 7 0
-6 28 -31 -22 -3 0
33 -5 -22 -29 0
22 -6 3 -28 31 0
4 -14 17 0
-3 30 -7 15 19 0
4 14 -17 0
-1 -5 -10 28 -25 0
22 6 31 28 3 0
-30 -19 -15 -7 3 0
7 -3 30 -19 15 0
22 -31 -3 -28 -6 0
-30 -15 7 -3 -19 0
26 34 -10 -14 -21 0
34 18 -15 0
-9 -24 18 32 0
-18 34 15 0
-24 -32 -18 -9 0
-13 29 12 0
-13 -12 -29 0
19 20 23 0
29 33 -5 22 0
-10 26 -34 14 -21 0
-1 10 -28 25 5 0
-32 24 -9 18 0
31 -2 -12 32 0
2 -31 -32 12 0
16 25 8 -21 0
-26 -14 21 -34 10 0
23 16 30 -1 27 0
26 34 14 -21 10 0
32 -31 -2 12 0
24 20 -4 -7 0
9 -24 32 -18 0
-26 -34 10 14 -21 0
-10 -5 -28 25 -1 0
-10 34 26 21 14 0
23 -1 30 -16 -27 0
5 29 -33 22 0
18 -34 15 0
-12 -31 -32 -2 0
-11 -8 33 0
10 -14 34 -21 -26 0
5 -29 22 33 0
31 2 -12 -32 0
25 -10 -28 5 1 0
-28 10 -1 -5 -25 0
32 12 2 31 0
-17 -14 -4 0
-25 28 -1 5 10 0
34 14 -10 -21 -26 0
20 24 4 7 0
-17 -11 27 0
2 6 0
11 -27 -17 0
21 8 -25 16 0
21 8 25 -16 0
-15 7 3 -30 19 0
-8 11 -33 0
27 30 23 -16 1 0
9 18 32 24 0
-31 22 6 -3 28 0
23 30 16 1 27 0
1 -10 -25 5 28 0
30 16 -1 -27 -23 0
13 29 -12 0
-3 -30 15 -19 -7 0
-27 -1 -30 23 16 0
-34 -15 -18 0
21 25 -8 16 0
1 -5 -28 -25 -10 0
-20 19 -23 0
-31 28 -22 6 3 0
